9 9 9
10
1   2 1   4 1   9 1   2 1
2   3 1   7 1   3 1   1 1
3   3 1   7 1   6 1   1 1
4   5 1   2 1   3 1   1 1
5   5 1   2 1   6 1   1 1
6   6 1   3 1   3 1   1 1
7   6 1   3 1   6 1   1 1
8   4 1   6 1   3 1   1 1
9   4 1   6 1   6 1   1 1
10  1 1   4 1   9 1   1 2
